c colouring generated by benchmark framework
p edge 250 15668
v 1 29
v 2 13
v 3 8
v 4 12
v 5 23
v 6 31
v 7 21
v 8 19
v 9 29
v 10 26
v 11 15
v 12 34
v 13 25
v 14 24
v 15 30
v 16 6
v 17 36
v 18 4
v 19 9
v 20 9
v 21 23
v 22 28
v 23 2
v 24 1
v 25 33
v 26 26
v 27 17
v 28 19
v 29 24
v 30 19
v 31 26
v 32 26
v 33 6
v 34 18
v 35 23
v 36 27
v 37 27
v 38 29
v 39 3
v 40 12
v 41 8
v 42 8
v 43 1
v 44 7
v 45 0
v 46 21
v 47 5
v 48 5
v 49 7
v 50 23
v 51 9
v 52 25
v 53 4
v 54 12
v 55 26
v 56 9
v 57 24
v 58 29
v 59 31
v 60 28
v 61 11
v 62 10
v 63 20
v 64 30
v 65 25
v 66 13
v 67 10
v 68 4
v 69 10
v 70 27
v 71 4
v 72 15
v 73 35
v 74 35
v 75 6
v 76 11
v 77 2
v 78 13
v 79 3
v 80 16
v 81 29
v 82 20
v 83 20
v 84 18
v 85 17
v 86 1
v 87 10
v 88 0
v 89 14
v 90 28
v 91 22
v 92 15
v 93 20
v 94 2
v 95 13
v 96 36
v 97 30
v 98 34
v 99 4
v 100 17
v 101 24
v 102 14
v 103 32
v 104 2
v 105 16
v 106 34
v 107 6
v 108 28
v 109 21
v 110 28
v 111 2
v 112 27
v 113 22
v 114 1
v 115 3
v 116 17
v 117 15
v 118 0
v 119 20
v 120 33
v 121 12
v 122 12
v 123 27
v 124 31
v 125 6
v 126 27
v 127 11
v 128 1
v 129 5
v 130 20
v 131 20
v 132 13
v 133 1
v 134 22
v 135 22
v 136 16
v 137 7
v 138 20
v 139 1
v 140 18
v 141 18
v 142 32
v 143 8
v 144 8
v 145 24
v 146 34
v 147 25
v 148 0
v 149 30
v 150 23
v 151 29
v 152 0
v 153 12
v 154 27
v 155 36
v 156 21
v 157 12
v 158 34
v 159 9
v 160 2
v 161 10
v 162 23
v 163 23
v 164 11
v 165 3
v 166 16
v 167 3
v 168 10
v 169 28
v 170 24
v 171 35
v 172 15
v 173 9
v 174 13
v 175 25
v 176 32
v 177 1
v 178 33
v 179 11
v 180 5
v 181 23
v 182 31
v 183 33
v 184 12
v 185 7
v 186 25
v 187 28
v 188 16
v 189 15
v 190 17
v 191 13
v 192 8
v 193 8
v 194 10
v 195 18
v 196 7
v 197 4
v 198 21
v 199 0
v 200 15
v 201 18
v 202 26
v 203 2
v 204 11
v 205 5
v 206 14
v 207 19
v 208 9
v 209 30
v 210 32
v 211 22
v 212 30
v 213 4
v 214 14
v 215 9
v 216 21
v 217 17
v 218 31
v 219 0
v 220 14
v 221 28
v 222 18
v 223 11
v 224 14
v 225 16
v 226 34
v 227 3
v 228 16
v 229 6
v 230 3
v 231 22
v 232 19
v 233 10
v 234 17
v 235 27
v 236 33
v 237 8
v 238 6
v 239 35
v 240 0
v 241 26
v 242 29
v 243 7
v 244 5
v 245 11
v 246 32
v 247 19
v 248 5
v 249 22
v 250 11
